9
1 2
2 9
3 4
4 5
5 5
6 2
7 7
8 7
9 1
27
0 1 8
1 0 8
0 2 1
2 0 1
0 3 79
3 0 79
0 4 29
4 0 29
0 5 21
5 0 21
0 6 77
6 0 77
0 7 69
7 0 69
0 8 50
8 0 50
0 9 55
9 0 55
1 4 13
1 9 78
2 7 68
3 4 97
3 5 74
4 6 40
4 8 38
5 7 64
7 8 54
